50
    1    16    15
    2    15    14
    3    26    24
    4    42    45
    5    50    48
    6    37    37
    7    26    29
    8    38    43
    9    14    11
   10    26    28
   11     1     5
   12    38    33
   13    18    16
   14    34    34
   15    24    28
   16    29    28
   17    20    25
   18    39    40
   19    35    39
   20    35    30
   21     1     3
   22    20    23
   23    21    26
   24     3     4
   25    36    40
   26    19    16
   27     6     8
   28     1     5
   29     1     3
   30    46    45
   31    42    43
   32    16    13
   33    18    17
   34    18    13
   35    48    48
   36    14    13
   37    24    24
   38    52    48
   39    48    50
   40    32    34
   41    23    23
   42     7     7
   43     4     6
   44    48    45
   45    38    35
   46    41    44
   47    13    13
   48    26    29
   49    47    45
   50     7     2
1080
